NAME : Synth-n9-k2-s0
COMMENT : Synthetic small hard CVRP instance for quantum simulation
TYPE : CVRP
DIMENSION : 9
EDGE_WEIGHT_TYPE : EUC_2D
CAPACITY : 19
NODE_COORD_SECTION
1 50.000000 50.000000
2 39.329335 65.672988
3 28.190455 62.617732
4 20.995448 28.749826
5 42.393580 34.858832
6 62.419807 28.228297
7 76.342664 34.602797
8 63.388946 58.997200
9 63.866324 71.022354
DEMAND_SECTION
1 0
2 2
3 6
4 3
5 3
6 4
7 6
8 4
9 3
DEPOT_SECTION
1
-1
EOF
